%
% Generated Sudoku 16x16
% Density approximation: 0.50
%
x = array2d(1..n, 1..n, [
   4,  11,   _,  15,   _,   _,   6,   _,   _,   1,   8,   _,   _,   9,  14,   _,
   _,   _,  14,   _,   _,   8,  15,   2,  16,  13,   _,   7,   _,   _,   1,   _,
   _,   _,   _,   8,   _,   _,   1,  13,   _,  11,   _,   _,   6,   _,   7,   2,
   2,   1,   _,   _,   _,   5,   _,   _,  14,  12,   9,   _,   _,   _,   _,   8,
  13,   _,   _,   _,   _,   _,   _,  10,   _,   7,  11,  14,   1,   _,   5,   9,
   _,   _,   8,   5,  14,   9,   3,   1,   6,  16,   _,  13,  12,   _,   _,   4,
   _,   _,   _,   _,   8,   _,   5,   _,   _,   9,   3,   4,   _,  14,  15,   _,
   _,   _,   _,   _,  13,   _,   _,   _,   _,   _,   _,   _,   _,   _,   3,   _,
   6,   _,   _,   9,  12,  13,   _,  15,   _,   _,   7,  16,   _,   1,   _,   3,
  16,   _,   1,   _,   2,   _,   7,   5,   _,   _,  13,   _,   _,  12,   _,   _,
   _,   _,   _,   7,   _,   4,   _,   _,   _,   _,   _,   1,  10,  15,   _,   _,
  12,   _,   4,   3,   _,   1,   9,   8,   2,  14,  15,  11,   7,   _,   6,  16,
  14,  13,  15,   _,   5,  10,   _,  12,   _,   _,   _,   _,   _,   7,   _,   _,
   _,   _,   _,  16,   _,   _,  13,  14,   7,  10,   6,   _,   9,   2,   _,  11,
   7,   8,   _,   6,  11,   2,   4,   3,  13,  15,   _,   5,  14,  10,   _,   1,
   _,   _,   _,   1,   7,   6,   _,   9,   4,   _,  14,   _,   _,  16,   _,   _
]);

n = 16;
